qbf_easy_train/easy_5203_SAT.qdimacs
p cnf 31 78
a 18 15 0
e 1 2 3 4 5 6 7 8 9 10 11 12 13 14 16 17 19 20 21 22 23 24 25 26 27 28 29 30 31 0
-2 -1 0
-2 1 0
5 -3 0
5 4 0
3 -4 -5 0
-9 -7 0
-9 8 0
7 -8 9 0
-10 6 0
-10 -9 0
-6 9 10 0
11 5 0
11 -10 0
-5 10 -11 0
13 -11 0
13 12 0
11 -12 -13 0
14 -2 0
14 -13 0
2 13 -14 0
-15 6 0
-15 -4 0
-6 4 15 0
16 -5 0
16 -15 0
5 15 -16 0
17 12 0
17 3 0
-12 -3 -17 0
19 17 0
19 -18 0
-17 18 -19 0
20 -16 0
20 -19 0
16 19 -20 0
21 15 0
21 15 0
-15 -21 0
22 -18 0
22 -4 0
18 4 -22 0
-4 -18 -23 0
4 18 -23 0
-4 18 23 0
4 -18 23 0
22 -23 -24 0
-22 23 -24 0
22 23 24 0
-22 -23 24 0
25 21 0
25 -24 0
-21 24 -25 0
-26 -20 0
-26 -25 0
20 25 26 0
27 10 0
27 9 0
-10 -9 -27 0
-28 -15 0
-28 9 0
15 -9 28 0
29 27 0
29 -28 0
-27 28 -29 0
30 26 0
30 29 0
-26 -29 -30 0
31 14 0
31 30 0
-14 -30 -31 0
30 27 2 -9 -25 -8 0
-14 31 -12 6 0
15 -22 30 0
-11 -29 -18 19 16 24 -1 0
1 10 4 -22 30 0
-26 -2 -30 21 -25 0
24 -8 6 -22 25 29 0
31 0
