sat_easy_train/easy_5203_SAT.dimacs
p cnf 145 489
-3 1 0
-3 2 0
-1 -2 3 0
-3 2 -4 0
3 -2 -4 0
-3 -2 4 0
3 2 4 0
4 -5 -6 0
-4 5 -6 0
4 5 6 0
-4 -5 6 0
-7 8 -9 0
7 -8 -9 0
-7 -8 9 0
7 8 9 0
-6 9 -10 0
6 -9 -10 0
-6 -9 10 0
6 9 10 0
-7 -3 -12 0
7 3 -12 0
-7 3 12 0
7 -3 12 0
-11 -12 -13 0
11 12 -13 0
-11 12 13 0
11 -12 13 0
-14 -13 0
-14 -11 0
13 11 14 0
-15 -14 0
-15 13 0
14 -13 15 0
-18 16 0
-18 17 0
-16 -17 18 0
19 -18 0
19 -16 0
18 16 -19 0
-21 19 0
-21 -20 0
-19 20 21 0
-22 -3 0
-22 21 0
3 -21 22 0
22 8 -23 0
-22 -8 -23 0
22 -8 23 0
-22 8 23 0
24 1 0
24 -23 0
-1 23 -24 0
-25 -15 0
-25 24 0
15 -24 25 0
28 -27 0
28 5 0
27 -5 -28 0
-29 26 0
-29 28 0
-26 -28 29 0
31 30 0
31 -1 0
-30 1 -31 0
32 31 0
32 16 0
-31 -16 -32 0
33 29 0
33 -32 0
-29 32 -33 0
-34 -25 0
-34 -33 0
25 33 34 0
-10 -34 -35 0
10 34 -35 0
-10 34 35 0
10 -34 35 0
-36 -11 0
-36 -13 0
11 13 36 0
-37 -8 0
-37 -36 0
8 36 37 0
39 2 0
39 38 0
-2 -38 -39 0
-40 -37 0
-40 39 0
37 -39 40 0
40 20 -41 0
-40 -20 -41 0
40 -20 41 0
-40 20 41 0
-35 41 -42 0
35 -41 -42 0
-35 -41 42 0
35 41 42 0
-43 1 0
-43 5 0
-1 -5 43 0
-44 43 0
-44 31 0
-43 -31 44 0
45 32 0
45 28 0
-32 -28 -45 0
-46 -3 0
-46 -45 0
3 45 46 0
-47 23 0
-47 -46 0
-23 46 47 0
48 47 0
48 2 0
-47 -2 -48 0
-50 32 0
-50 -49 0
-32 49 50 0
-51 48 0
-51 -50 0
-48 50 51 0
52 19 0
52 -27 0
-19 27 -52 0
18 -52 -53 0
-18 52 -53 0
18 52 53 0
-18 -52 53 0
54 37 0
54 -20 0
-37 20 -54 0
55 53 0
55 -54 0
-53 54 -55 0
19 31 -56 0
-19 -31 -56 0
19 -31 56 0
-19 31 56 0
56 -57 -58 0
-56 57 -58 0
56 57 58 0
-56 -57 58 0
55 58 -59 0
-55 -58 -59 0
55 -58 59 0
-55 58 59 0
-51 59 -60 0
51 -59 -60 0
-51 -59 60 0
51 59 60 0
61 20 0
61 -38 0
-20 38 -61 0
-62 3 0
-62 61 0
-3 -61 62 0
-63 12 0
-63 30 0
-12 -30 63 0
-64 47 0
-64 -63 0
-47 63 64 0
-65 -46 0
-65 12 0
46 -12 65 0
64 -65 -66 0
-64 65 -66 0
64 65 66 0
-64 -65 66 0
17 8 -67 0
-17 -8 -67 0
17 -8 67 0
-17 8 67 0
68 57 0
68 43 0
-57 -43 -68 0
67 -68 -69 0
-67 68 -69 0
67 68 69 0
-67 -68 69 0
-70 -69 0
-70 -9 0
69 9 70 0
-71 -3 0
-71 4 0
3 -4 71 0
-72 -71 0
-72 38 0
71 -38 72 0
72 7 -73 0
-72 -7 -73 0
72 -7 73 0
-72 7 73 0
-74 73 0
-74 39 0
-73 -39 74 0
-70 -74 -75 0
70 74 -75 0
-70 74 75 0
70 -74 75 0
-76 -66 0
-76 75 0
66 -75 76 0
-77 62 0
-77 76 0
-62 -76 77 0
78 -60 0
78 -77 0
60 77 -78 0
-79 44 0
-79 -78 0
-44 78 79 0
80 42 0
80 -79 0
-42 79 -80 0
-43 73 -81 0
43 -73 -81 0
-43 -73 81 0
43 73 81 0
-83 -8 0
-83 -82 0
8 82 83 0
81 83 -84 0
-81 -83 -84 0
81 -83 84 0
-81 83 84 0
-85 20 0
-85 72 0
-20 -72 85 0
86 -49 0
86 -2 0
49 2 -86 0
87 22 0
87 86 0
-22 -86 -87 0
88 -85 0
88 -87 0
85 87 -88 0
-89 36 0
-89 -46 0
-36 46 89 0
-90 88 0
-90 89 0
-88 -89 90 0
-38 26 -91 0
38 -26 -91 0
-38 -26 91 0
38 26 91 0
-92 -30 0
-92 29 0
30 -29 92 0
-93 3 0
-93 -92 0
-3 92 93 0
94 -91 0
94 93 0
91 -93 -94 0
-95 -71 0
-95 21 0
71 -21 95 0
96 38 0
96 16 0
-38 -16 -96 0
-97 -96 0
-97 -69 0
96 69 97 0
-98 3 0
-98 5 0
-3 -5 98 0
5 98 -99 0
-5 -98 -99 0
5 -98 99 0
-5 98 99 0
11 99 -100 0
-11 -99 -100 0
11 -99 100 0
-11 99 100 0
-100 101 0
100 101 0
-4 -63 -102 0
4 63 -102 0
-4 63 102 0
4 -63 102 0
103 -101 0
103 102 0
101 -102 -103 0
-104 97 0
-104 103 0
-97 -103 104 0
105 95 0
105 104 0
-95 -104 -105 0
94 105 -106 0
-94 -105 -106 0
94 -105 106 0
-94 105 106 0
-107 -49 0
-107 -71 0
49 71 107 0
-108 52 0
-108 -107 0
-52 107 108 0
109 26 0
109 5 0
-26 -5 -109 0
-110 -108 0
-110 -109 0
108 109 110 0
-111 -106 0
-111 -110 0
106 110 111 0
-112 90 0
-112 -111 0
-90 111 112 0
-84 -112 -113 0
84 112 -113 0
-84 112 113 0
84 -112 113 0
-114 27 0
-114 -9 0
-27 9 114 0
113 -114 -115 0
-113 114 -115 0
113 114 115 0
-113 -114 115 0
116 -16 0
116 -16 0
16 -116 0
117 -39 0
117 -116 0
39 116 -117 0
-118 12 0
-118 -72 0
-12 72 118 0
119 117 0
119 118 0
-117 -118 -119 0
-120 8 0
-120 -17 0
-8 17 120 0
121 119 0
121 -120 0
-119 120 -121 0
-122 67 0
-122 98 0
-67 -98 122 0
123 -52 0
123 28 0
52 -28 -123 0
124 122 0
124 123 0
-122 -123 -124 0
23 -107 -125 0
-23 107 -125 0
23 107 125 0
-23 -107 125 0
126 -125 0
126 -9 0
125 9 -126 0
-127 124 0
-127 126 0
-124 -126 127 0
-128 121 0
-128 -127 0
-121 127 128 0
49 -18 -129 0
-49 18 -129 0
49 18 129 0
-49 -18 129 0
129 -11 -130 0
-129 11 -130 0
129 11 130 0
-129 -11 130 0
131 31 0
131 130 0
-31 -130 -131 0
132 -18 0
132 -107 0
18 107 -132 0
-133 -71 0
-133 132 0
71 -132 133 0
-134 -131 0
-134 133 0
131 -133 134 0
37 29 -135 0
-37 -29 -135 0
37 -29 135 0
-37 29 135 0
68 -13 -136 0
-68 13 -136 0
68 13 136 0
-68 -13 136 0
137 136 0
137 -13 0
-136 13 -137 0
138 130 0
138 -39 0
-130 39 -138 0
-116 138 -139 0
116 -138 -139 0
-116 -138 139 0
116 138 139 0
140 137 0
140 139 0
-137 -139 -140 0
135 -140 -141 0
-135 140 -141 0
135 140 141 0
-135 -140 141 0
134 -141 -142 0
-134 141 -142 0
134 141 142 0
-134 -141 142 0
143 128 0
143 142 0
-128 -142 -143 0
-115 143 -144 0
115 -143 -144 0
-115 -143 144 0
115 143 144 0
-145 80 0
-145 144 0
-80 -144 145 0
-58 -45 13 -51 27 -118 0
81 107 139 0
-132 23 89 0
-41 -52 136 39 0
80 -29 -94 131 -79 0
-60 144 0
137 20 2 60 37 39 0
-91 86 -83 -127 97 0
136 -100 -120 -74 0
114 -26 101 0
-122 138 -44 -113 0
35 -56 65 0
30 64 0
-42 -31 65 -133 0
-107 -139 0
-113 -71 0
-25 85 88 0
-25 34 31 0
-117 -94 37 66 0
-62 122 32 -91 0
-89 9 -120 128 0
-59 57 121 119 142 0
-57 -131 19 0
125 57 62 107 0
118 -42 21 94 0
-123 -93 5 0
-26 -30 0
-9 20 49 -84 69 0
-16 -120 30 96 -140 0
142 85 0
87 49 23 -11 -52 0
98 28 43 64 -10 -144 0
-20 -58 -140 0
64 -102 -126 -104 0
-57 -13 -56 -132 -54 -91 0
-91 -29 41 -92 51 0
39 141 88 -65 0
115 52 -26 -120 103 0
-137 57 0
12 -80 -105 125 116 0
17 136 -7 -62 0
68 -76 -143 0
-41 138 132 -77 -103 -23 0
-63 59 14 58 0
-53 -63 -2 -92 -57 0
-110 74 -129 -136 0
98 -19 0
-114 -115 -137 24 0
59 -80 -140 -79 39 0
-19 -44 37 0
71 7 -135 -134 118 -130 0
98 13 -137 -133 -84 18 0
113 -122 48 126 -97 62 0
53 30 117 -103 0
-60 -62 95 91 0
75 -26 -137 -51 0
106 -11 0
57 116 -90 139 0
75 -117 0
4 41 -50 22 -39 0
-84 27 -63 134 0
-29 25 -8 -61 -135 0
41 -58 -102 96 0
119 57 -12 -140 61 0
145 0
